60
1 0 34
2 0 57
2 1 42
3 0 80
3 1 58
3 2 65
4 0 57
4 1 75
4 2 75
4 3 59
5 0 79
5 1 66
5 2 39
5 3 67
5 4 50
6 0 60
6 1 57
6 2 70
6 3 80
6 4 14
6 5 59
7 0 68
7 1 10
7 2 59
7 3 48
7 4 25
7 5 17
7 6 80
8 0 34
8 1 75
8 2 71
8 3 23
8 4 8
8 5 52
8 6 72
8 7 46
9 0 70
9 1 47
9 2 51
9 3 34
9 4 69
9 5 34
9 6 61
9 7 78
9 8 21
10 0 6
10 1 58
10 2 67
10 3 65
10 4 63
10 5 79
10 6 19
10 7 77
10 8 77
10 9 21
11 0 56
11 1 34
11 2 41
11 3 5
11 4 36
11 5 33
11 6 23
11 7 23
11 8 65
11 9 49
11 10 3
12 0 68
12 1 52
12 2 54
12 3 80
12 4 29
12 5 49
12 6 64
12 7 72
12 8 36
12 9 44
12 10 48
12 11 9
13 0 24
13 1 39
13 2 48
13 3 16
13 4 27
13 5 1
13 6 57
13 7 4
13 8 29
13 9 76
13 10 57
13 11 36
13 12 21
14 0 49
14 1 48
14 2 53
14 3 36
14 4 11
14 5 26
14 6 34
14 7 31
14 8 50
14 9 14
14 10 40
14 11 71
14 12 7
14 13 68
15 0 38
15 1 20
15 2 26
15 3 21
15 4 62
15 5 11
15 6 37
15 7 10
15 8 61
15 9 76
15 10 50
15 11 18
15 12 44
15 13 6
15 14 77
16 0 69
16 1 76
16 2 12
16 3 2
16 4 64
16 5 44
16 6 27
16 7 17
16 8 58
16 9 74
16 10 22
16 11 74
16 12 1
16 13 28
16 14 6
16 15 28
17 0 41
17 1 68
17 2 47
17 3 19
17 4 26
17 5 5
17 6 67
17 7 6
17 8 4
17 9 28
17 10 32
17 11 33
17 12 65
17 13 31
17 14 72
17 15 31
17 16 13
18 0 73
18 1 15
18 2 46
18 3 50
18 4 26
18 5 52
18 6 63
18 7 27
18 8 41
18 9 70
18 10 31
18 11 33
18 12 4
18 13 39
18 14 22
18 15 41
18 16 38
18 17 76
19 0 59
19 1 12
19 2 44
19 3 57
19 4 46
19 5 40
19 6 36
19 7 65
19 8 23
19 9 63
19 10 38
19 11 80
19 12 30
19 13 45
19 14 57
19 15 72
19 16 71
19 17 29
19 18 49
20 0 65
20 1 60
20 2 53
20 3 44
20 4 8
20 5 52
20 6 80
20 7 56
20 8 30
20 9 35
20 10 64
20 11 79
20 12 72
20 13 15
20 14 18
20 15 64
20 16 59
20 17 47
20 18 4
20 19 48
21 0 69
21 1 21
21 2 27
21 3 79
21 4 13
21 5 7
21 6 55
21 7 48
21 8 65
21 9 54
21 10 78
21 11 60
21 12 62
21 13 41
21 14 3
21 15 7
21 16 24
21 17 51
21 18 60
21 19 37
21 20 44
22 0 50
22 1 30
22 2 50
22 3 70
22 4 22
22 5 13
22 6 60
22 7 29
22 8 36
22 9 43
22 10 61
22 11 47
22 12 58
22 13 37
22 14 73
22 15 54
22 16 1
22 17 53
22 18 10
22 19 24
22 20 17
22 21 73
23 0 12
23 1 2
23 2 38
23 3 45
23 4 30
23 5 15
23 6 68
23 7 72
23 8 75
23 9 19
23 10 12
23 11 18
23 12 47
23 13 12
23 14 37
23 15 40
23 16 12
23 17 43
23 18 57
23 19 4
23 20 61
23 21 27
23 22 74
24 0 68
24 1 25
24 2 20
24 3 31
24 4 6
24 5 44
24 6 41
24 7 56
24 8 5
24 9 58
24 10 33
24 11 33
24 12 80
24 13 12
24 14 59
24 15 70
24 16 68
24 17 46
24 18 8
24 19 24
24 20 21
24 21 42
24 22 61
24 23 25
25 0 55
25 1 75
25 2 43
25 3 36
25 4 63
25 5 53
25 6 52
25 7 30
25 8 66
25 9 70
25 10 72
25 11 53
25 12 69
25 13 16
25 14 24
25 15 58
25 16 53
25 17 25
25 18 8
25 19 69
25 20 58
25 21 11
25 22 6
25 23 59
25 24 3
26 0 7
26 1 2
26 2 60
26 3 15
26 4 68
26 5 28
26 6 78
26 7 78
26 8 54
26 9 69
26 10 62
26 11 78
26 12 15
26 13 19
26 14 16
26 15 17
26 16 15
26 17 73
26 18 68
26 19 17
26 20 77
26 21 8
26 22 45
26 23 14
26 24 3
26 25 37
27 0 43
27 1 44
27 2 35
27 3 31
27 4 24
27 5 72
27 6 66
27 7 10
27 8 77
27 9 31
27 10 17
27 11 9
27 12 42
27 13 23
27 14 74
27 15 17
27 16 9
27 17 61
27 18 10
27 19 61
27 20 50
27 21 19
27 22 18
27 23 53
27 24 74
27 25 38
27 26 48
28 0 69
28 1 57
28 2 18
28 3 60
28 4 77
28 5 58
28 6 57
28 7 71
28 8 68
28 9 57
28 10 59
28 11 20
28 12 44
28 13 45
28 14 71
28 15 70
28 16 56
28 17 35
28 18 14
28 19 53
28 20 26
28 21 58
28 22 14
28 23 61
28 24 70
28 25 25
28 26 40
28 27 60
29 0 48
29 1 22
29 2 6
29 3 17
29 4 74
29 5 17
29 6 39
29 7 34
29 8 9
29 9 59
29 10 57
29 11 41
29 12 42
29 13 63
29 14 50
29 15 20
29 16 40
29 17 62
29 18 20
29 19 10
29 20 12
29 21 74
29 22 52
29 23 57
29 24 76
29 25 5
29 26 76
29 27 17
29 28 2
30 0 65
30 1 65
30 2 55
30 3 10
30 4 7
30 5 31
30 6 51
30 7 75
30 8 6
30 9 48
30 10 45
30 11 25
30 12 22
30 13 20
30 14 75
30 15 21
30 16 31
30 17 27
30 18 50
30 19 4
30 20 68
30 21 33
30 22 55
30 23 57
30 24 31
30 25 16
30 26 10
30 27 53
30 28 13
30 29 40
31 0 72
31 1 33
31 2 76
31 3 10
31 4 43
31 5 36
31 6 61
31 7 55
31 8 66
31 9 63
31 10 54
31 11 6
31 12 49
31 13 68
31 14 66
31 15 14
31 16 58
31 17 48
31 18 72
31 19 19
31 20 37
31 21 6
31 22 33
31 23 56
31 24 9
31 25 67
31 26 66
31 27 48
31 28 45
31 29 68
31 30 6
32 0 62
32 1 76
32 2 72
32 3 18
32 4 36
32 5 65
32 6 48
32 7 21
32 8 4
32 9 24
32 10 37
32 11 16
32 12 16
32 13 27
32 14 56
32 15 7
32 16 25
32 17 71
32 18 53
32 19 44
32 20 16
32 21 42
32 22 15
32 23 73
32 24 51
32 25 17
32 26 5
32 27 16
32 28 69
32 29 63
32 30 48
32 31 22
33 0 17
33 1 46
33 2 72
33 3 19
33 4 58
33 5 32
33 6 20
33 7 50
33 8 16
33 9 39
33 10 80
33 11 2
33 12 74
33 13 22
33 14 39
33 15 33
33 16 32
33 17 15
33 18 9
33 19 72
33 20 39
33 21 56
33 22 47
33 23 3
33 24 74
33 25 35
33 26 72
33 27 70
33 28 10
33 29 76
33 30 47
33 31 4
33 32 49
34 0 38
34 1 21
34 2 6
34 3 63
34 4 1
34 5 51
34 6 21
34 7 41
34 8 18
34 9 28
34 10 10
34 11 65
34 12 10
34 13 33
34 14 12
34 15 2
34 16 50
34 17 80
34 18 14
34 19 57
34 20 29
34 21 3
34 22 6
34 23 24
34 24 24
34 25 59
34 26 2
34 27 45
34 28 8
34 29 77
34 30 74
34 31 5
34 32 21
34 33 17
35 0 58
35 1 18
35 2 44
35 3 38
35 4 36
35 5 66
35 6 5
35 7 28
35 8 36
35 9 72
35 10 8
35 11 9
35 12 5
35 13 41
35 14 64
35 15 57
35 16 60
35 17 53
35 18 64
35 19 57
35 20 28
35 21 36
35 22 61
35 23 62
35 24 1
35 25 27
35 26 43
35 27 27
35 28 3
35 29 67
35 30 72
35 31 22
35 32 40
35 33 23
35 34 44
36 0 71
36 1 55
36 2 32
36 3 58
36 4 42
36 5 31
36 6 51
36 7 35
36 8 48
36 9 63
36 10 63
36 11 27
36 12 69
36 13 37
36 14 22
36 15 49
36 16 10
36 17 51
36 18 76
36 19 55
36 20 73
36 21 68
36 22 32
36 23 19
36 24 48
36 25 46
36 26 21
36 27 1
36 28 10
36 29 34
36 30 66
36 31 43
36 32 22
36 33 8
36 34 68
36 35 43
37 0 9
37 1 12
37 2 62
37 3 58
37 4 11
37 5 14
37 6 29
37 7 21
37 8 14
37 9 7
37 10 43
37 11 13
37 12 4
37 13 42
37 14 9
37 15 15
37 16 52
37 17 43
37 18 41
37 19 21
37 20 70
37 21 15
37 22 58
37 23 32
37 24 43
37 25 51
37 26 11
37 27 41
37 28 20
37 29 70
37 30 76
37 31 62
37 32 71
37 33 11
37 34 21
37 35 25
37 36 15
38 0 59
38 1 13
38 2 38
38 3 34
38 4 60
38 5 27
38 6 72
38 7 31
38 8 72
38 9 77
38 10 4
38 11 1
38 12 41
38 13 6
38 14 10
38 15 33
38 16 27
38 17 37
38 18 30
38 19 21
38 20 64
38 21 77
38 22 22
38 23 39
38 24 52
38 25 52
38 26 8
38 27 6
38 28 34
38 29 15
38 30 60
38 31 21
38 32 3
38 33 40
38 34 6
38 35 28
38 36 22
38 37 34
39 0 67
39 1 10
39 2 20
39 3 8
39 4 15
39 5 35
39 6 2
39 7 5
39 8 20
39 9 41
39 10 63
39 11 44
39 12 15
39 13 77
39 14 41
39 15 25
39 16 71
39 17 59
39 18 73
39 19 75
39 20 79
39 21 25
39 22 7
39 23 53
39 24 16
39 25 72
39 26 8
39 27 75
39 28 64
39 29 41
39 30 50
39 31 25
39 32 73
39 33 16
39 34 15
39 35 47
39 36 77
39 37 57
39 38 48
40 0 76
40 1 29
40 2 30
40 3 75
40 4 62
40 5 37
40 6 8
40 7 57
40 8 32
40 9 2
40 10 50
40 11 36
40 12 57
40 13 6
40 14 40
40 15 51
40 16 57
40 17 62
40 18 40
40 19 66
40 20 15
40 21 38
40 22 19
40 23 26
40 24 14
40 25 35
40 26 33
40 27 58
40 28 74
40 29 54
40 30 66
40 31 31
40 32 46
40 33 70
40 34 8
40 35 21
40 36 44
40 37 42
40 38 68
40 39 9
41 0 44
41 1 36
41 2 47
41 3 54
41 4 60
41 5 52
41 6 57
41 7 38
41 8 18
41 9 4
41 10 21
41 11 30
41 12 7
41 13 28
41 14 42
41 15 66
41 16 56
41 17 37
41 18 28
41 19 66
41 20 70
41 21 72
41 22 74
41 23 46
41 24 4
41 25 25
41 26 40
41 27 59
41 28 63
41 29 72
41 30 80
41 31 42
41 32 10
41 33 30
41 34 68
41 35 9
41 36 46
41 37 78
41 38 10
41 39 18
41 40 65
42 0 29
42 1 10
42 2 47
42 3 33
42 4 43
42 5 75
42 6 77
42 7 9
42 8 15
42 9 22
42 10 53
42 11 35
42 12 77
42 13 16
42 14 68
42 15 58
42 16 58
42 17 4
42 18 14
42 19 70
42 20 53
42 21 70
42 22 29
42 23 30
42 24 69
42 25 16
42 26 60
42 27 28
42 28 58
42 29 74
42 30 13
42 31 58
42 32 23
42 33 50
42 34 33
42 35 67
42 36 35
42 37 40
42 38 25
42 39 78
42 40 33
42 41 5
43 0 11
43 1 57
43 2 22
43 3 64
43 4 56
43 5 1
43 6 4
43 7 67
43 8 58
43 9 42
43 10 70
43 11 15
43 12 80
43 13 33
43 14 22
43 15 2
43 16 39
43 17 68
43 18 35
43 19 15
43 20 53
43 21 64
43 22 3
43 23 63
43 24 21
43 25 67
43 26 8
43 27 53
43 28 50
43 29 11
43 30 72
43 31 4
43 32 19
43 33 65
43 34 63
43 35 57
43 36 76
43 37 30
43 38 47
43 39 28
43 40 16
43 41 54
43 42 75
44 0 3
44 1 12
44 2 6
44 3 51
44 4 11
44 5 41
44 6 23
44 7 66
44 8 66
44 9 44
44 10 26
44 11 66
44 12 8
44 13 37
44 14 46
44 15 54
44 16 8
44 17 17
44 18 51
44 19 64
44 20 79
44 21 37
44 22 65
44 23 30
44 24 58
44 25 4
44 26 12
44 27 29
44 28 40
44 29 43
44 30 38
44 31 7
44 32 59
44 33 28
44 34 66
44 35 4
44 36 56
44 37 57
44 38 21
44 39 22
44 40 35
44 41 42
44 42 76
44 43 25
45 0 29
45 1 52
45 2 68
45 3 63
45 4 59
45 5 32
45 6 50
45 7 1
45 8 75
45 9 15
45 10 46
45 11 22
45 12 20
45 13 44
45 14 42
45 15 42
45 16 39
45 17 12
45 18 5
45 19 57
45 20 60
45 21 22
45 22 55
45 23 9
45 24 12
45 25 6
45 26 55
45 27 17
45 28 21
45 29 47
45 30 48
45 31 1
45 32 51
45 33 13
45 34 74
45 35 76
45 36 45
45 37 69
45 38 18
45 39 55
45 40 15
45 41 10
45 42 59
45 43 35
45 44 25
46 0 41
46 1 32
46 2 62
46 3 54
46 4 33
46 5 47
46 6 64
46 7 47
46 8 19
46 9 12
46 10 26
46 11 7
46 12 10
46 13 49
46 14 39
46 15 6
46 16 35
46 17 31
46 18 54
46 19 7
46 20 36
46 21 43
46 22 80
46 23 48
46 24 8
46 25 40
46 26 42
46 27 11
46 28 57
46 29 46
46 30 79
46 31 34
46 32 67
46 33 26
46 34 61
46 35 44
46 36 78
46 37 5
46 38 28
46 39 60
46 40 41
46 41 4
46 42 39
46 43 14
46 44 25
46 45 20
47 0 66
47 1 6
47 2 68
47 3 41
47 4 56
47 5 77
47 6 40
47 7 57
47 8 36
47 9 62
47 10 63
47 11 23
47 12 22
47 13 15
47 14 39
47 15 71
47 16 47
47 17 36
47 18 64
47 19 29
47 20 42
47 21 46
47 22 19
47 23 22
47 24 62
47 25 45
47 26 62
47 27 40
47 28 9
47 29 5
47 30 31
47 31 62
47 32 16
47 33 65
47 34 8
47 35 12
47 36 46
47 37 37
47 38 18
47 39 58
47 40 76
47 41 67
47 42 18
47 43 15
47 44 5
47 45 57
47 46 43
48 0 78
48 1 70
48 2 48
48 3 25
48 4 4
48 5 65
48 6 12
48 7 58
48 8 55
48 9 24
48 10 13
48 11 43
48 12 61
48 13 65
48 14 24
48 15 68
48 16 23
48 17 20
48 18 7
48 19 33
48 20 32
48 21 17
48 22 50
48 23 70
48 24 78
48 25 51
48 26 19
48 27 56
48 28 32
48 29 68
48 30 72
48 31 70
48 32 38
48 33 68
48 34 19
48 35 35
48 36 21
48 37 46
48 38 38
48 39 41
48 40 31
48 41 28
48 42 27
48 43 40
48 44 17
48 45 60
48 46 17
48 47 27
49 0 57
49 1 57
49 2 68
49 3 23
49 4 13
49 5 35
49 6 24
49 7 34
49 8 73
49 9 49
49 10 7
49 11 76
49 12 53
49 13 67
49 14 55
49 15 70
49 16 24
49 17 25
49 18 70
49 19 61
49 20 12
49 21 28
49 22 37
49 23 50
49 24 75
49 25 80
49 26 37
49 27 80
49 28 15
49 29 79
49 30 65
49 31 5
49 32 54
49 33 60
49 34 9
49 35 77
49 36 3
49 37 27
49 38 78
49 39 3
49 40 75
49 41 22
49 42 2
49 43 41
49 44 11
49 45 65
49 46 54
49 47 52
49 48 44
50 0 16
50 1 2
50 2 63
50 3 80
50 4 51
50 5 55
50 6 32
50 7 22
50 8 29
50 9 35
50 10 32
50 11 74
50 12 75
50 13 61
50 14 12
50 15 36
50 16 38
50 17 69
50 18 65
50 19 20
50 20 54
50 21 58
50 22 31
50 23 25
50 24 61
50 25 12
50 26 13
50 27 30
50 28 53
50 29 1
50 30 38
50 31 32
50 32 6
50 33 8
50 34 27
50 35 15
50 36 26
50 37 17
50 38 79
50 39 56
50 40 78
50 41 41
50 42 40
50 43 37
50 44 61
50 45 14
50 46 8
50 47 69
50 48 20
50 49 77
51 0 59
51 1 45
51 2 27
51 3 11
51 4 12
51 5 4
51 6 30
51 7 71
51 8 25
51 9 11
51 10 52
51 11 25
51 12 14
51 13 1
51 14 39
51 15 30
51 16 80
51 17 6
51 18 9
51 19 47
51 20 53
51 21 56
51 22 18
51 23 22
51 24 73
51 25 42
51 26 58
51 27 51
51 28 14
51 29 12
51 30 11
51 31 4
51 32 46
51 33 11
51 34 53
51 35 13
51 36 26
51 37 68
51 38 77
51 39 75
51 40 34
51 41 27
51 42 76
51 43 45
51 44 45
51 45 36
51 46 30
51 47 67
51 48 38
51 49 72
51 50 70
52 0 54
52 1 23
52 2 71
52 3 60
52 4 40
52 5 43
52 6 39
52 7 56
52 8 1
52 9 67
52 10 72
52 11 25
52 12 35
52 13 43
52 14 41
52 15 76
52 16 5
52 17 58
52 18 78
52 19 24
52 20 12
52 21 33
52 22 80
52 23 76
52 24 1
52 25 65
52 26 45
52 27 39
52 28 11
52 29 4
52 30 55
52 31 11
52 32 48
52 33 56
52 34 73
52 35 68
52 36 9
52 37 72
52 38 16
52 39 40
52 40 35
52 41 7
52 42 79
52 43 37
52 44 4
52 45 45
52 46 36
52 47 60
52 48 25
52 49 26
52 50 14
52 51 43
53 0 36
53 1 2
53 2 6
53 3 57
53 4 10
53 5 70
53 6 76
53 7 64
53 8 34
53 9 76
53 10 13
53 11 31
53 12 53
53 13 10
53 14 27
53 15 71
53 16 1
53 17 48
53 18 76
53 19 22
53 20 12
53 21 75
53 22 34
53 23 15
53 24 24
53 25 61
53 26 67
53 27 31
53 28 40
53 29 55
53 30 46
53 31 50
53 32 59
53 33 23
53 34 32
53 35 30
53 36 33
53 37 73
53 38 63
53 39 72
53 40 28
53 41 61
53 42 52
53 43 46
53 44 18
53 45 44
53 46 47
53 47 56
53 48 7
53 49 55
53 50 29
53 51 80
53 52 35
54 0 63
54 1 23
54 2 33
54 3 2
54 4 64
54 5 54
54 6 21
54 7 18
54 8 28
54 9 50
54 10 51
54 11 65
54 12 71
54 13 48
54 14 45
54 15 33
54 16 53
54 17 61
54 18 30
54 19 72
54 20 67
54 21 78
54 22 36
54 23 47
54 24 16
54 25 67
54 26 1
54 27 80
54 28 8
54 29 24
54 30 62
54 31 44
54 32 64
54 33 50
54 34 62
54 35 28
54 36 26
54 37 70
54 38 26
54 39 80
54 40 23
54 41 74
54 42 21
54 43 19
54 44 49
54 45 79
54 46 59
54 47 45
54 48 69
54 49 3
54 50 24
54 51 27
54 52 58
54 53 33
55 0 1
55 1 77
55 2 69
55 3 72
55 4 63
55 5 15
55 6 2
55 7 59
55 8 25
55 9 46
55 10 32
55 11 32
55 12 6
55 13 50
55 14 30
55 15 19
55 16 39
55 17 15
55 18 21
55 19 19
55 20 13
55 21 23
55 22 55
55 23 39
55 24 56
55 25 8
55 26 53
55 27 5
55 28 43
55 29 6
55 30 43
55 31 42
55 32 71
55 33 27
55 34 29
55 35 13
55 36 59
55 37 59
55 38 30
55 39 60
55 40 26
55 41 31
55 42 46
55 43 25
55 44 50
55 45 26
55 46 60
55 47 27
55 48 76
55 49 72
55 50 18
55 51 24
55 52 32
55 53 65
55 54 21
56 0 39
56 1 73
56 2 78
56 3 2
56 4 44
56 5 17
56 6 50
56 7 31
56 8 8
56 9 60
56 10 33
56 11 75
56 12 37
56 13 51
56 14 23
56 15 9
56 16 25
56 17 71
56 18 40
56 19 29
56 20 64
56 21 57
56 22 78
56 23 38
56 24 34
56 25 56
56 26 69
56 27 62
56 28 63
56 29 66
56 30 17
56 31 60
56 32 65
56 33 75
56 34 61
56 35 11
56 36 29
56 37 8
56 38 38
56 39 62
56 40 7
56 41 59
56 42 35
56 43 49
56 44 2
56 45 62
56 46 74
56 47 58
56 48 23
56 49 73
56 50 1
56 51 14
56 52 69
56 53 78
56 54 80
56 55 10
57 0 28
57 1 70
57 2 29
57 3 42
57 4 15
57 5 40
57 6 21
57 7 24
57 8 47
57 9 70
57 10 44
57 11 64
57 12 31
57 13 3
57 14 80
57 15 80
57 16 37
57 17 67
57 18 16
57 19 55
57 20 27
57 21 26
57 22 8
57 23 48
57 24 25
57 25 40
57 26 40
57 27 25
57 28 2
57 29 62
57 30 55
57 31 26
57 32 36
57 33 12
57 34 13
57 35 41
57 36 58
57 37 8
57 38 6
57 39 10
57 40 14
57 41 55
57 42 71
57 43 68
57 44 40
57 45 26
57 46 30
57 47 46
57 48 12
57 49 23
57 50 71
57 51 4
57 52 8
57 53 65
57 54 45
57 55 32
57 56 55
58 0 30
58 1 74
58 2 22
58 3 17
58 4 56
58 5 8
58 6 6
58 7 36
58 8 16
58 9 28
58 10 49
58 11 22
58 12 26
58 13 78
58 14 78
58 15 3
58 16 56
58 17 51
58 18 44
58 19 34
58 20 11
58 21 39
58 22 50
58 23 72
58 24 2
58 25 1
58 26 53
58 27 5
58 28 37
58 29 18
58 30 44
58 31 22
58 32 24
58 33 45
58 34 16
58 35 55
58 36 68
58 37 72
58 38 18
58 39 32
58 40 5
58 41 25
58 42 77
58 43 20
58 44 22
58 45 36
58 46 41
58 47 55
58 48 75
58 49 73
58 50 4
58 51 52
58 52 71
58 53 64
58 54 23
58 55 22
58 56 2
58 57 24
59 0 74
59 1 1
59 2 49
59 3 5
59 4 46
59 5 37
59 6 33
59 7 67
59 8 23
59 9 74
59 10 27
59 11 29
59 12 66
59 13 44
59 14 42
59 15 48
59 16 25
59 17 39
59 18 72
59 19 79
59 20 59
59 21 47
59 22 46
59 23 79
59 24 55
59 25 30
59 26 57
59 27 27
59 28 11
59 29 37
59 30 63
59 31 47
59 32 5
59 33 49
59 34 14
59 35 8
59 36 41
59 37 80
59 38 60
59 39 27
59 40 14
59 41 42
59 42 53
59 43 16
59 44 45
59 45 22
59 46 49
59 47 67
59 48 39
59 49 18
59 50 32
59 51 3
59 52 29
59 53 1
59 54 25
59 55 16
59 56 41
59 57 27
59 58 67
